17	4	3
17	3	17	22	21	55	43	
0	0	0	0	0	2	5	5	1	6	4	3	2	3	4
2	0	0	0	8	8	6	7	4	8	8	3	5	8	11
10	0	3	0	0	6	9	2	4	6	7	3	6	13	17
10	0	0	6	0	3	10	8	8	8	4	2	5	17
6	0	2	0	0	3	3	7	4	7	2	3	10	12	13
250	0	0	0	9	8	8	7	2	9	3	3	7	9	17
150	0	0	0	10	5	6	9	2	10	6	2	14	17
25	0	0	8	0	10	6	4	2	9	9	2	17	17
125	0	0	8	0	8	1	8	5	9	6	3	11	14	15
50	0	0	0	10	8	2	9	5	5	5	2	16	17
175	2	0	0	0	7	2	3	3	4	1	2	17	17
125	0	0	4	0	6	8	7	4	9	6	2	16	17
7	0	0	5	0	9	9	1	3	10	9	3	14	16	17
6	0	0	9	0	1	7	10	9	1	9	1	17
8	0	0	0	10	5	9	10	3	4	5	2	17	17
5	5	0	0	0	8	10	6	1	3	9	1	17
0	0	0	0	0	1	8	7	8	2	6	0
